c --- [ banner ] -------------------------------------------------------------
c 
c CaDiCaL SAT Solver
c Copyright (c) 2016-2023 A. Biere, M. Fleury, N. Froleyks, K. Fazekas, F. Pollitt
c 
c Version 1.9.5
c g++ (Ubuntu 11.4.0-1ubuntu1~22.04) 11.4.0 -Wall -Wextra -O3 -DNDEBUG -static
c Thu Mar 7 06:16:21 CET 2024 Linux pc101447 6.5.0-17-generic x86_64
c 
c --- [ limit ] --------------------------------------------------------------
c 
c setting time limit to 3600 seconds real time (due to '-t 3600')
c 
c --- [ parsing input ] ------------------------------------------------------
c 
c reading DIMACS file from '/home/oliveras/SAT-comp-2023//571a2f223784fb92a53b4cc8cc8b569e-clqcolor-08-06-07.shuffled-as.sat05-1257.cnf'
c opening file to read '/home/oliveras/SAT-comp-2023//571a2f223784fb92a53b4cc8cc8b569e-clqcolor-08-06-07.shuffled-as.sat05-1257.cnf'
c found 'p cnf 132 1527' header
c parsed 1527 clauses in 0.00 seconds process time
c 
c --- [ options ] ------------------------------------------------------------
c 
c   --seed=1                       (different from default '0')
c 
c --- [ solving ] ------------------------------------------------------------
c 
c time measured in process time since initialization
c 
c  seconds  reductions  redundant irredundant
c         MB    restarts       trail    variables
c          level   conflicts       glue     remaining
c 
c *  0.00  1  0 0   0    0    0  0% 0 1527 132 100%
c {  0.00  1  0 0   0    0    0  0% 0 1527 132 100%
c -  0.01  1 18 1  36  301  188 75% 9 1527 132 100%
c -  0.02  1 22 2  75  903  555 82% 8 1527 132 100%
c }  0.02  1 22 2  75 1001  640 82% 8 1527 132 100%
c [  0.02  1  0 2  75 1001  640  0% 0 1527 132 100%
c O  0.02  1 25 2  75 1002  641 82% 6 1527 132 100%
c -  0.04  2 20 3  75 1803  958 79% 10 1527 132 100%
c ]  0.06  2 20 3  76 3001 1925 81% 11 1527 132 100%
c {  0.06  2 22 3  76 3001 1925 82% 8 1527 132 100%
c F  0.06  2 22 3  76 3003 1927 82% 8 1527 132 100%
c -  0.06  2 22 4  76 3003 1481 82% 8 1527 132 100%
c -  0.09  2 19 5 197 4506 2024 78% 9 1527 132 100%
c #  0.13  2 18 5 385 6005 3116 75% 9 1527 132 100%
c -  0.13  2 19 6 441 6307 2457 75% 10 1527 132 100%
c }  0.15  2 19 6 569 7003 2955 74% 10 1527 132 100%
c [  0.15  2 20 6 569 7003 2955 81% 11 1527 132 100%
c s  0.16  2 20 6 569 7065 2920 81% 11 1527 132 100%
c w  0.16  2 20 6 569 7065 2919 81% 11 1527 132 100%
c e  0.17  2 20 6 569 7065  310 81% 11 1512 117 89%
c 
c  seconds  reductions  redundant  irredundant
c         MB    restarts       trail     variables
c          level   conflicts       glue      remaining
c 
c s  0.17  2 20 6 569 7065  298 81% 11 1512 117 89%
c -  0.19  2 26 7 570 8410 1250 76% 14 1512 117 89%
c I  0.21  2 27 7 571 10007 2296 71% 16 1512 117 89%
c -  0.22  2 26 8 572 10810 2155 69% 15 1512 117 89%
c -  0.27  3 24 9 574 13513 2992 65% 13 1512 117 89%
c ]  0.29  3 23 9 574 15006 3960 63% 13 1512 117 89%
c {  0.29  3 19 9 574 15006 3960 74% 10 1512 117 89%
c B  0.29  3 19 9 574 15011 3963 74% 10 1512 117 89%
c -  0.32  2 18 10 584 16513 3503 74% 10 1512 117 89%
c -  0.36  3 17 11 961 19813 3263 67% 10 1512 117 89%
c W  0.38  3 17 11 961 21013 3862 65% 10 1512 117 89%
c s  0.40  3 17 11 993 21833 4133 64% 10 1512 117 89%
c w  0.41  3 17 11 993 21833 4131 64% 10 1512 117 89%
c s  0.42  3 17 11 993 21833 4064 64% 10 1512 117 89%
c ^  0.42  3 17 11 993 21833 4064 64% 10 1512 117 89%
c -  0.44  2 16 12 997 23413 2911 64% 10 1512 117 89%
c -  0.50  3 16 13 1211 27318 4341 64% 9 1512 117 89%
c F  0.51  3 16 13 1268 28015 4718 63% 9 1512 117 89%
c }  0.56  3 16 13 1424 31008 6542 61% 9 1512 117 89%
c [  0.56  3 23 13 1424 31008 6542 63% 13 1512 117 89%
c 
c  seconds  reductions     redundant  irredundant
c         MB     restarts         trail     variables
c          level      conflicts       glue      remaining
c 
c -  0.57  3 23 14 1424 31518 4832 62% 13 1512 117 89%
c B  0.64  3 21 14 1427 36016 7838 59% 12 1512 117 89%
c -  0.64  3 21 15 1427 36020 5348 59% 12 1512 117 89%
c -  0.72  3 23 16 1430 40823 5615 61% 13 1512 117 89%
c s  0.76  3 24 16 1431 43986 7420 59% 14 1512 117 89%
c w  0.77  3 24 16 1431 43986 7417 59% 14 1512 117 89%
c s  0.78  3 24 16 1431 43986 7407 59% 14 1512 117 89%
c ^  0.78  3 24 16 1431 43986 7407 59% 14 1512 117 89%
c W  0.80  3 24 16 1431 45017 8107 59% 14 1512 117 89%
c -  0.82  3 24 17 1431 45923 5581 59% 15 1512 117 89%
c -  0.93  3 24 18 1432 51323 6063 57% 15 1512 117 89%
c O  1.00  3 23 18 1433 55019 8434 57% 15 1512 117 89%
c -  1.03  3 23 19 1434 57024 6502 56% 15 1512 117 89%
c ]  1.11  3 22 19 1438 63009 10645 55% 14 1512 117 89%
c {  1.11  3 16 19 1438 63009 10645 61% 9 1512 117 89%
c -  1.12  4 16 20 1443 63026 6948 61% 9 1512 117 89%
c B  1.15  4 15 20 1503 66020 8412 60% 9 1512 117 89%
c -  1.20  4 14 21 1546 69332 6312 58% 9 1512 117 89%
c s  1.26  4 14 21 1582 73522 7386 57% 9 1502 117 89%
c w  1.27  4 14 21 1582 73522 7383 57% 9 1502 117 89%
c 
c  seconds  reductions     redundant irredundant
c         MB     restarts         trail    variables
c          level      conflicts       glue     remaining
c 
c s  1.27  4 14 21 1582 73522 7357 57% 9 1502 117 89%
c ^  1.27  4 14 21 1582 73522 7357 57% 9 1502 117 89%
c -  1.31  4 13 22 1612 75932 5703 57% 9 1502 117 89%
c W  1.34  4 13 22 1645 78024 6485 56% 8 1502 117 89%
c -  1.40  4 12 23 1679 82833 6147 56% 8 1502 117 89%
c i  1.46  4 12 23 1759 87302 8211 55% 8 1502 116 88%
c -  1.49  4 12 24 1831 90033 2031 55% 8 1464 116 88%
c #  1.50  4 12 24 1841 91030 2322 55% 8 1464 116 88%
c -  1.56  4 12 25 1963 97536 4362 55% 8 1464 116 88%
c i  1.62  4 11 25 2035 103617 6647 54% 8 1464 115 87%
c B  1.64  4 11 25 2094 105033 7207 54% 8 1464 115 87%
c -  1.65  4 11 26 2102 105338 1283 54% 8 1417 115 87%
c s  1.70  4 11 26 2365 110352 3270 54% 8 1417 115 87%
c s  1.70  4 11 26 2365 110352 3254 54% 8 1417 115 87%
c ^  1.70  4 11 26 2365 110352 3254 54% 8 1417 115 87%
c -  1.73  3 11 27 2462 113442 3830 54% 8 1417 115 87%
c i  1.80  3 11 27 2611 119455 5913 54% 8 1417 114 86%
c W  1.81  3 11 27 2617 120034 1333 54% 8 1370 114 86%
c -  1.83  3 11 28 2689 121843 1642 54% 8 1370 114 86%
c }  1.87  3 11 28 2892 127013 3253 53% 8 1370 114 86%
c 
c  seconds  reductions      redundant  irredundant
c         MB     restarts          trail     variables
c          level      conflicts        glue      remaining
c 
c [  1.87  3 22 28 2892 127013 3253 55% 14 1370 114 86%
c -  1.92  3 21 29 2893 130545 4890 55% 14 1370 114 86%
c i  1.93  3 21 29 2893 130996 5097 55% 14 1370 113 86%
c B  2.00  3 22 29 2897 136035 8606 55% 14 1370 113 86%
c -  2.07  4 21 30 2899 139545 6362 54% 14 1324 113 86%
c 3  2.08  4 21 30 2899 140008 6647 54% 13 1324 113 86%
c p  2.08  4 21 30 2899 140008 6651 54% 13 1324 113 86%
c i  2.10  4 21 30 2900 141727 7420 54% 13 1324 112 85%
c -  2.21  5 21 31 2901 148847 5366 54% 13 1280 112 85%
c W  2.28  5 21 31 2902 153038 8118 54% 13 1280 112 85%
c s  2.29  5 21 31 2902 153836 8669 54% 13 1280 112 85%
c w  2.30  5 21 31 2902 153836 8668 54% 13 1280 112 85%
c s  2.30  5 21 31 2902 153836 8668 54% 13 1280 112 85%
c ^  2.30  5 21 31 2902 153836 8668 54% 13 1280 112 85%
c -  2.39  5 21 32 2902 158456 8869 54% 14 1280 112 85%
c -  2.59  5 22 33 2902 168359 10275 53% 14 1280 112 85%
c I  2.63  5 22 33 2903 171039 12163 53% 14 1280 112 85%
c -  2.79  5 21 34 2909 178559 11417 53% 14 1280 112 85%
c -  3.03  5 21 35 2915 189059 11915 53% 14 1280 112 85%
c B  3.05  5 21 35 2915 190042 12617 53% 14 1280 112 85%
c 
c  seconds  reductions       redundant  irredundant
c         MB     restarts           trail     variables
c          level      conflicts         glue      remaining
c 
c -  3.25  5 21 36 2917 199859 12794 53% 14 1280 112 85%
c s  3.35  5 21 36 2917 203041 14807 53% 14 1280 112 85%
c w  3.36  5 21 36 2917 203041 14800 53% 14 1280 112 85%
c s  3.37  5 21 36 2917 203041 14800 53% 14 1280 112 85%
c W  3.53  5 20 36 2922 210043 19679 53% 14 1280 112 85%
c -  3.56  5 20 37 2923 210959 13508 53% 14 1280 112 85%
c -  3.85  6 20 38 2929 222359 14726 52% 13 1280 112 85%
c d  3.90  6 19 38 2930 225011 13017 52% 13 1278 111 84%
c 3  3.90  6 19 38 2930 225011 13044 52% 13 1252 111 84%
c 2  3.90  6 19 38 2930 225011 13047 52% 13 1252 106 80%
c i  3.99  6 19 38 2931 229601 15738 52% 13 1252 105 80%
c O  4.02  6 19 38 2932 231045 16782 52% 13 1252 105 80%
c i  4.09  6 19 38 2932 233990 18406 52% 13 1252 104 79%
c -  4.09  5 19 39 2932 234060 4962 52% 13  989 104 79%
c i  4.11  5 19 39 2932 234739 5340 52% 13  989  91 69%
c i  4.11  5 19 39 2932 234765 5349 52% 13  989  88 67%
c ]  4.11  5 19 39 2932 234771 5348 52% 13  989  65 49%
c 0  4.11  5 19 39 2932 234771 5348 52% 13  989  65 49%
c 
c --- [ result ] -------------------------------------------------------------
c 
s UNSATISFIABLE
c 
c --- [ run-time profiling ] -------------------------------------------------
c 
c process time taken by individual solving procedures
c (percentage relative to process time for solving)
c 
c         3.94   96.00% search
c         2.84   69.26% stable
c         1.05   25.62% unstable
c         0.16    3.99% simplify
c         0.08    2.00% subsume
c         0.05    1.15% vivify
c         0.05    1.11% walk
c         0.01    0.30% elim
c         0.01    0.14% ternary
c         0.01    0.14% probe
c         0.00    0.04% parse
c         0.00    0.00% lucky
c   =================================
c         4.11   99.95% solve
c 
c last line shows process time for solving
c (percentage relative to total process time)
c 
c --- [ statistics ] ---------------------------------------------------------
c 
c chronological:             49590        21.12 %  of conflicts
c conflicts:                234771     57189.76    per second
c decisions:                307823     74985.09    per second
c eliminated:                   15        11.36 %  of all variables
c fixed:                        51        38.64 %  of all variables
c learned:                  218832        93.21 %  per conflict
c learned_lits:            5335128       100.00 %  learned literals
c minimized:                     0         0.00 %  learned literals
c shrunken:                1276035        23.92 %  learned literals
c minishrunken:             614171        11.51 %  learned literals
c otfs:                       4263         1.82 %  of conflict
c propagations:            3905508         0.95 M  per second
c reduced:                   86529        36.86 %  per conflict
c rephased:                     21     11179.57    interval
c restarts:                   2932        80.07    interval
c stabilizing:                   4        63.74 %  of conflicts
c substituted:                   1         0.76 %  of all variables
c subsumed:                  81230        36.77 %  of all clauses
c strengthened:              10793         4.89 %  of all clauses
c ternary:                      79         0.43 %  of resolved
c trail reuses:                  0         0.00 %  of incremental calls
c vivified:                     45         0.02 %  of all clauses
c walked:                        6     39128.50    interval
c weakened:                    409         3.40    average size
c 
c seconds are measured in process time for solving
c 
c --- [ resources ] ----------------------------------------------------------
c 
c total process time since initialization:         4.11    seconds
c total real time since initialization:            4.11    seconds
c maximum resident set size of process:            6.73    MB
c 
c --- [ shutting down ] ------------------------------------------------------
c 
c exit 20
